<number of tasks>
20

<cycle time>
1000

<order strength>
0,805


<task times>
1 452
2 724
3 326
4 588
5 395
6 662
7 458
8 640
9 475
10 562
11 519
12 531
13 401
14 622
15 454
16 549
17 575
18 417
19 345
20 315

<precedence relations>
1,3
2,4
2,5
3,4
3,5
4,6
4,7
5,8
6,10
7,9
7,10
8,10
9,12
9,13
10,11
10,12
11,14
11,15
13,14
13,15
14,16
14,17
14,18
15,16
16,19
16,20
17,19
18,20

<end>
